! OptTS Freq PBE0 RIJCOSX D3BJ def2-SVP def2/J PAL8
% maxcore 4000
%geom
calc_hess true
recalc_hess 5
End
*xyz 0 2
C         -1.20637        0.17496        0.07698
C          0.20359       -0.33191        0.23059
C          1.37528        0.45672       -0.31005
H         -1.33394        1.15453        0.56883
H         -1.93339       -0.53431        0.50675
H         -1.44055        0.28874       -0.99604
H          0.42683       -0.89174        1.17612
H          0.57600       -0.71950       -0.88965
H          1.27127        1.42856       -0.76214
H          2.38780        0.01397       -0.08409
*
