%mem=32000MB
%nprocshared=8
# PBE1PBE Def2SVP SP EmpiricalDispersion=GD3BJ integral=ultrafinegrid NoSymm scrf=(smd,solvent=Water)

 3ixBtq_product_opt_g09

-1 1
Cl   0.47876600   0.17864200  -0.48351100 
C   -0.70115600  -1.09741900   2.22768200 
F   -1.34342000  -1.79346500   3.23360400 
H   -0.94102200  -1.51200100   1.23816600 
H   -1.00882000  -0.03960300   2.23801700 
H    0.39065200  -1.14880400   2.37136300 



